$comment
ClBz, ionized states at the optimized structure of the A2 cation, to figure out state ordering
$end

$molecule
0 1
H        -2.1375917741    0.0000000000    0.3786218635
C        -1.1918260625    0.0000000000   -0.1453848291
C        -1.1865968607    0.0000000000   -1.5897166878
H        -2.1393643245    0.0000000000   -2.1011554060
C         0.0000000000    0.0000000000   -2.3047495571
H         0.0000000000    0.0000000000   -3.3832045096
C         1.1865968607    0.0000000000   -1.5897166878
H         2.1393643245    0.0000000000   -2.1011554060
C         1.1918260625    0.0000000000   -0.1453848291
H         2.1375917741    0.0000000000    0.3786218635
C         0.0000000000    0.0000000000    0.5668420231
Cl        0.0000000000    0.0000000000    2.2767399233
$end

$rem
   BASIS  = cc-pVTZ
   JOB_TYPE  =  SP
   METHOD  =  EOM-CCSD
   IP_STATES = [0,1,0,1]  Only need B2 and A2 states
!   CC_MEMORY = 80000   
! use SP code 
!  cc_single_prec=1
!  eom_single_prec=1
!  cc_sp_dm = 1
!  cc_sp_t_conv = 4
!  cc_sp_e_conv = 6
!  cc_erase_dp_integrals = 1
$end

