$molecule
0 1
  H    0.0000000    2.1527918    0.4822092
  C    0.0000000    1.2047582   -0.0651382
  C    0.0000000    1.2047582   -1.4562732
  H    0.0000000    2.1527918   -2.0036206
  C    0.0000000   -0.0000000   -2.1518406
  H    0.0000000   -0.0000000   -3.2465355
  C    0.0000000   -1.2047582   -1.4562732
  H   -0.0000000   -2.1527918   -2.0036206
  C   -0.0000000   -1.2047582   -0.0651382
  H   -0.0000000   -2.1527918    0.4822092
  C   -0.0000000    0.0000000    0.6304292
 Cl   -0.0000000    0.0000000    1.7251241
$end

$rem
   AUXILIARY_BASIS  =  RIMP2-cc-PVTZ
   BASIS  =  cc-pcVTZ
   GUI  =  2
   JOB_TYPE  =  Optimization
   METHOD  =  RI-MP2
   SCF_CONVERGENCE  =  8
   n_frozen_core = FC
$end


