$comment
Open-shell calculation at the relaxted geometry of the lowest state (B3g)
$end

$molecule
+1 2
 H         1.2392908131   -2.1390691708    0.0000000000
 C         0.7225974533   -1.1894682957    0.0000000000
 C        -0.7225974533   -1.1894682957    0.0000000000
 H        -1.2392908131   -2.1390691708    0.0000000000
 C        -1.4341864916    0.0000000000    0.0000000000
 H        -2.5128824541    0.0000000000    0.0000000000
 C        -0.7225974533    1.1894682957    0.0000000000
 H        -1.2392908131    2.1390691708    0.0000000000
 C         0.7225974533    1.1894682957    0.0000000000
 H         1.2392908131    2.1390691708    0.0000000000
 C         1.4341864916    0.0000000000    0.0000000000
 H         2.5128824541    0.0000000000    0.0000000000
$end

$rem
   JOB_TYPE  =  SP
   BASIS  =  aug-cc-pVDZ
   METHOD  =  EOM-CCSD
   CVS_EE_STATES = [0,0,0,0,0,6,6,6]  Bright transitions only
!   CC_MEMORY = 80000
   cc_trans_prop = 1
$end
