$comment
Optimized Br-Bz, EOM-IP calculation at the  opt A2 geom (EOM-IP-CCSD/cc-pVTZ)
$end

$molecule
0 1
H        -2.1384774911    0.0000000000   -0.1696452001
C        -1.1899301707    0.0000000000   -0.6888298752
C        -1.1860257460    0.0000000000   -2.1332324269
H        -2.1391940670    0.0000000000   -2.6441137630
C         0.0000000000    0.0000000000   -2.8493278239
H         0.0000000000    0.0000000000   -3.9278124125
C         1.1860257460    0.0000000000   -2.1332324269
H         2.1391940670    0.0000000000   -2.6441137630
C         1.1899301707    0.0000000000   -0.6888298752
H         2.1384774911    0.0000000000   -0.1696452001
C         0.0000000000    0.0000000000    0.0269576114
Br        0.0000000000    0.0000000000    1.8900817152
$end

$rem
   JOB_TYPE  =  SP
   BASIS  =  cc-pVTZ
   METHOD  =  EOM-CCSD
   IP_STATES = [2,2,2,2]
   EOM_DAVIDSON_MAXVECTORS = 120
   CC_MEMORY = 80000
   cc_trans_prop = 1
$end
