$molecule
0 1
H        -2.1400320233    0.0000000000   -0.1495480158
C        -1.2120583232    0.0000000000   -0.7028148658
C        -1.2042956497    0.0000000000   -2.0947016297
H        -2.1437187877    0.0000000000   -2.6302428250
C         0.0000000000    0.0000000000   -2.7936988293
H         0.0000000000    0.0000000000   -3.8745528350
C         1.2042956497    0.0000000000   -2.0947016297
H         2.1437187877    0.0000000000   -2.6302428250
C         1.2120583232    0.0000000000   -0.7028148658
H         2.1400320233    0.0000000000   -0.1495480158
C         0.0000000000    0.0000000000   -0.0199042774
Br        0.0000000000    0.0000000000    1.7110271744
$end

$rem
   BASIS  = cc-pVTZ
   JOB_TYPE  =  OPT
   METHOD  =  EOM-CCSD
   SCF_CONVERGENCE  =  8
   IP_STATES = [0,1,0,0]
   CC_STATE_TO_OPT = [2,1]
   CC_MEMORY = 80000   
! use SP code 
  cc_single_prec=1
  eom_single_prec=1
  cc_sp_dm = 1
  cc_sp_t_conv = 4
  cc_sp_e_conv = 6
  cc_erase_dp_integrals = 1
$end

